Maximize
  0.0156788459172225 Z_410_5_0 + 0.0350733939788608 Z_410_5_1
   + 0.0205813662272625 Z_410_5_2 + 0.00402923012200422 Z_410_5_3
   + 0.82463716375465 Z_410_5_4 + 0.0105875002235285 Z_410_2_0
   + 0.065276453304571 Z_410_2_1 + 0.1571215279891654 Z_410_2_2
   + 0.00947580126300399 Z_410_2_3 + 0.6575387172197312 Z_410_2_4
   + 0.0105875002235285 Z_410_4_0 + 0.065276453304571 Z_410_4_1
   + 0.1571215279891654 Z_410_4_2 + 0.00947580126300399 Z_410_4_3
   + 0.6575387172197312 Z_410_4_4 + 0.00937921758912304 Z_410_1_0
   + 0.0816149081724717 Z_410_1_1 + 0.0938283678751895 Z_410_1_2
   + 0.0028968 Z_410_1_3 + 0.7122807064551991 Z_410_1_4
   + 0.00937921758912304 Z_410_0_0 + 0.0816149081724717 Z_410_0_1
   + 0.0938283678751895 Z_410_0_2 + 0.0028968 Z_410_0_3
   + 0.7122807064551991 Z_410_0_4 + 0.00587464050193851 Z_410_6_0
   + 0.1611511767705973 Z_410_6_1 + 0.0637319506632359 Z_410_6_2
   + 0.00337405811592942 Z_410_6_3 + 0.665868173948299 Z_410_6_4
   + 0.2337309829101485 Z_410_3_0 + 0.3745524228185244 Z_410_3_1
   + 0.0353579046039431 Z_410_3_2 + 0.0310292282562255 Z_410_3_3
   + 0.2253294614111586 Z_410_3_4 + 0.0127050689444882 Z_493_0_0
   + 0.0384710490285452 Z_493_0_1 + 0.0509441858954857 Z_493_0_2
   + 0.0671311788134032 Z_493_0_3 + 0.730748517318078 Z_493_0_4 + [
   0.0534278733632849 Z_410_2_0 * Z_493_0_0
   + 0.0534278733632849 Z_410_2_1 * Z_493_0_1
   + 0.0534278733632849 Z_410_2_2 * Z_493_0_2
   + 0.0534278733632849 Z_410_2_3 * Z_493_0_3
   + 0.0534278733632849 Z_410_2_4 * Z_493_0_4
   + 0.041499436094662 Z_410_1_0 * Z_493_0_0
   + 0.041499436094662 Z_410_1_1 * Z_493_0_1
   + 0.041499436094662 Z_410_1_2 * Z_493_0_2
   + 0.041499436094662 Z_410_1_3 * Z_493_0_3
   + 0.041499436094662 Z_410_1_4 * Z_493_0_4
   + 0.0818087554003982 Z_410_6_0 * Z_493_0_0
   + 0.0818087554003982 Z_410_6_1 * Z_493_0_1
   + 0.0818087554003982 Z_410_6_2 * Z_493_0_2
   + 0.0818087554003982 Z_410_6_3 * Z_493_0_3
   + 0.0818087554003982 Z_410_6_4 * Z_493_0_4 ] / 2 
Subject To
 constraint1_4105: Z_410_5_0 + Z_410_5_1 + Z_410_5_2 + Z_410_5_3
   + Z_410_5_4 <= 1
 constraint1_4102: Z_410_2_0 + Z_410_2_1 + Z_410_2_2 + Z_410_2_3
   + Z_410_2_4 <= 1
 constraint1_4104: Z_410_4_0 + Z_410_4_1 + Z_410_4_2 + Z_410_4_3
   + Z_410_4_4 <= 1
 constraint1_4101: Z_410_1_0 + Z_410_1_1 + Z_410_1_2 + Z_410_1_3
   + Z_410_1_4 <= 1
 constraint1_4100: Z_410_0_0 + Z_410_0_1 + Z_410_0_2 + Z_410_0_3
   + Z_410_0_4 <= 1
 constraint1_4106: Z_410_6_0 + Z_410_6_1 + Z_410_6_2 + Z_410_6_3
   + Z_410_6_4 <= 1
 constraint1_4103: Z_410_3_0 + Z_410_3_1 + Z_410_3_2 + Z_410_3_3
   + Z_410_3_4 <= 1
 constraint1_4930: Z_493_0_0 + Z_493_0_1 + Z_493_0_2 + Z_493_0_3
   + Z_493_0_4 <= 1
 constraint2_3660: <= 1
 constraint2_3661: <= 1
 constraint2_3662: <= 1
 constraint2_3663: <= 1
 constraint2_6710: <= 1
 constraint2_6711: <= 1
 constraint2_6712: <= 1
 constraint2_6713: <= 1
 constraint2_4100: Z_410_5_0 + Z_410_2_0 + Z_410_4_0 + Z_410_1_0
   + Z_410_0_0 + Z_410_6_0 + Z_410_3_0 <= 1
 constraint2_4101: Z_410_5_1 + Z_410_2_1 + Z_410_4_1 + Z_410_1_1
   + Z_410_0_1 + Z_410_6_1 + Z_410_3_1 <= 1
 constraint2_4102: Z_410_5_2 + Z_410_2_2 + Z_410_4_2 + Z_410_1_2
   + Z_410_0_2 + Z_410_6_2 + Z_410_3_2 <= 1
 constraint2_4103: Z_410_5_3 + Z_410_2_3 + Z_410_4_3 + Z_410_1_3
   + Z_410_0_3 + Z_410_6_3 + Z_410_3_3 <= 1
 constraint2_5290: <= 1
 constraint2_5291: <= 1
 constraint2_5292: <= 1
 constraint2_5293: <= 1
 constraint2_380: <= 1
 constraint2_381: <= 1
 constraint2_382: <= 1
 constraint2_383: <= 1
 constraint2_4930: Z_493_0_0 <= 1
 constraint2_4931: Z_493_0_1 <= 1
 constraint2_4932: Z_493_0_2 <= 1
 constraint2_4933: Z_493_0_3 <= 1
Bounds
Binaries
 Z_410_5_0 Z_410_5_1 Z_410_5_2 Z_410_5_3 Z_410_5_4 Z_410_2_0 Z_410_2_1
 Z_410_2_2 Z_410_2_3 Z_410_2_4 Z_410_4_0 Z_410_4_1 Z_410_4_2 Z_410_4_3
 Z_410_4_4 Z_410_1_0 Z_410_1_1 Z_410_1_2 Z_410_1_3 Z_410_1_4 Z_410_0_0
 Z_410_0_1 Z_410_0_2 Z_410_0_3 Z_410_0_4 Z_410_6_0 Z_410_6_1 Z_410_6_2
 Z_410_6_3 Z_410_6_4 Z_410_3_0 Z_410_3_1 Z_410_3_2 Z_410_3_3 Z_410_3_4
 Z_493_0_0 Z_493_0_1 Z_493_0_2 Z_493_0_3 Z_493_0_4
End
